Instance: E101-10c.dat
Class:  4
  100 --- number of customers (no depot)
   20 --- number of vehicles
  247 --- number of items
Capacity - height - width of vehicles
   200     40     20
Node - x - y - demand
    0    40.0    50.0     0.0
    1    45.0    68.0    10.0
    2    45.0    70.0    30.0
    3    42.0    66.0    10.0
    4    42.0    68.0    10.0
    5    42.0    65.0    10.0
    6    40.0    69.0    20.0
    7    40.0    66.0    20.0
    8    38.0    68.0    20.0
    9    38.0    70.0    10.0
   10    35.0    66.0    10.0
   11    35.0    69.0    10.0
   12    25.0    85.0    20.0
   13    22.0    75.0    30.0
   14    22.0    85.0    10.0
   15    20.0    80.0    40.0
   16    20.0    85.0    40.0
   17    18.0    75.0    20.0
   18    15.0    75.0    20.0
   19    15.0    80.0    10.0
   20    30.0    50.0    10.0
   21    30.0    52.0    20.0
   22    28.0    52.0    20.0
   23    28.0    55.0    10.0
   24    25.0    50.0    10.0
   25    25.0    52.0    40.0
   26    25.0    55.0    10.0
   27    23.0    52.0    10.0
   28    23.0    55.0    20.0
   29    20.0    50.0    10.0
   30    20.0    55.0    10.0
   31    10.0    35.0    20.0
   32    10.0    40.0    30.0
   33     8.0    40.0    40.0
   34     8.0    45.0    20.0
   35     5.0    35.0    10.0
   36     5.0    45.0    10.0
   37     2.0    40.0    20.0
   38     0.0    40.0    30.0
   39     0.0    45.0    20.0
   40    35.0    30.0    10.0
   41    35.0    32.0    10.0
   42    33.0    32.0    20.0
   43    33.0    35.0    10.0
   44    32.0    30.0    10.0
   45    30.0    30.0    10.0
   46    30.0    32.0    30.0
   47    30.0    35.0    10.0
   48    28.0    30.0    10.0
   49    28.0    35.0    10.0
   50    26.0    32.0    10.0
   51    25.0    30.0    10.0
   52    25.0    35.0    10.0
   53    44.0     5.0    20.0
   54    42.0    10.0    40.0
   55    42.0    15.0    10.0
   56    40.0     5.0    30.0
   57    40.0    15.0    40.0
   58    38.0     5.0    30.0
   59    38.0    15.0    10.0
   60    35.0     5.0    20.0
   61    50.0    30.0    10.0
   62    50.0    35.0    20.0
   63    50.0    40.0    50.0
   64    48.0    30.0    10.0
   65    48.0    40.0    10.0
   66    47.0    35.0    10.0
   67    47.0    40.0    10.0
   68    45.0    30.0    10.0
   69    45.0    35.0    10.0
   70    95.0    30.0    30.0
   71    95.0    35.0    20.0
   72    53.0    30.0    10.0
   73    92.0    30.0    10.0
   74    53.0    35.0    50.0
   75    45.0    65.0    20.0
   76    90.0    35.0    10.0
   77    88.0    30.0    10.0
   78    88.0    35.0    20.0
   79    87.0    30.0    10.0
   80    85.0    25.0    10.0
   81    85.0    35.0    30.0
   82    75.0    55.0    20.0
   83    72.0    55.0    10.0
   84    70.0    58.0    20.0
   85    68.0    60.0    30.0
   86    66.0    55.0    10.0
   87    65.0    55.0    20.0
   88    65.0    60.0    30.0
   89    63.0    58.0    10.0
   90    60.0    55.0    10.0
   91    60.0    60.0    10.0
   92    67.0    85.0    20.0
   93    65.0    85.0    40.0
   94    65.0    82.0    10.0
   95    62.0    80.0    30.0
   96    60.0    80.0    10.0
   97    60.0    85.0    30.0
   98    58.0    75.0    20.0
   99    55.0    80.0    10.0
  100    55.0    85.0    20.0
Node - number of items - h - w for each item
    0   0
    1   4    5   12    8   11    8    5   26    3
    2   1   22    4
    3   4    7   10   15    3   14    3   17    2
    4   2    9    7    8    6
    5   4    8    5   13    4   28    3   14    3
    6   4   17    4    5    4   27    3    8    3
    7   3    8   12    6    6    9    4
    8   1   29    2
    9   2    8   10   12    7
   10   2   11    7    5    6
   11   2   32    3   15    3
   12   4    5   11   13    8   12    7   16    3
   13   4    6   10    5    6    9    5   22    4
   14   4   13    8    6    6    4    6   27    3
   15   3    6    9   13    7   15    4
   16   4    5   12    4   12    6   10    6    9
   17   4    5   11    8    7   21    4    5    4
   18   1   17    3
   19   4    9    6    8    6    5    6   29    3
   20   2   13    8   14    4
   21   1   12    5
   22   3    4    7    6    5   14    2
   23   1    8    7
   24   1   20    3
   25   2   22    3   29    2
   26   1   17    3
   27   2    7    8   13    2
   28   4    5   12    5   12    5    6   16    5
   29   4    6   11    7    5   21    3   16    3
   30   2   11    4   26    2
   31   2    4   10   14    3
   32   1   24    3
   33   2   11    6   31    2
   34   3   16    6   10    5   17    3
   35   1   15    6
   36   3   12    6   11    5   14    2
   37   4   11    7    8    7   15    5   29    3
   38   2   14    3   25    2
   39   3    5    9   12    4   10    2
   40   1    6    6
   41   1   12    2
   42   1    5    4
   43   3    6   14    5    4   26    3
   44   3    8    8   14    6   27    4
   45   1    5    7
   46   2   27    3   21    3
   47   4    7    7   30    3   15    3   14    3
   48   4    7    8   15    6   19    4   20    3
   49   2    8    7    4    4
   50   2   13    4   21    2
   51   4    6   13    5   12    8    9   15    2
   52   4    7   13    9    5   14    3   14    2
   53   4    5   14    5    9   11    5   32    2
   54   4   11    6    9    4    8    3   19    2
   55   4    6   14    7   10    5    9   26    3
   56   3    9    7   15    4    8    2
   57   4   10    4   25    2   21    2   12    2
   58   1   20    3
   59   2    7    7    5    7
   60   2   30    4   12    3
   61   4   10    8   10    7    7    6   18    3
   62   1   14    3
   63   3    7    6   12    5   16    3
   64   1   32    4
   65   1   15    2
   66   1   16    3
   67   2    6    7   10    6
   68   2    8   12    7   10
   69   4   15    6   23    4   22    4   22    4
   70   1   12    7
   71   4    7   11    5   11   15    5    7    2
   72   4    8    7    7    5   16    3   30    2
   73   4    8   12    5    6   27    4   12    2
   74   3    8    9   13    5   12    5
   75   2    5    7    7    5
   76   2    6    7   10    4
   77   3    4    9   31    4   16    3
   78   1   18    3
   79   2   12    5    8    4
   80   3    7    8    7    5   29    4
   81   1    6    7
   82   1    7    6
   83   3    6    7   27    3   11    3
   84   3    5    6   24    2   22    2
   85   2    7    6    8    3
   86   1    9    7
   87   3   13    7   14    3   11    3
   88   1    7    9
   89   3    5   11    7    8   10    2
   90   4    6   12    8    8   14    5   11    4
   91   2   27    2   24    2
   92   3    4    9   10    5   18    4
   93   2    6   14   18    4
   94   2   21    3   16    2
   95   2   19    3   14    3
   96   2    8   10    7    3
   97   2    9    6    9    4
   98   1    5    4
   99   1    5    7
  100   3    5   10    8    8   24    3
